lbl,CUST NO.,READY TIME,XCOORD.,YCOORD.,DEMAND,DUE DATE,SERVICE TIME
1,0,0,70,70,0,1351,0
1,155,14,63,57,10,413,90
1,113,15,67,55,10,203,90
1,78,106,62,58,20,297,90
1,175,228,61,54,10,363,90
1,43,298,61,48,20,667,90
1,13,304,63,50,10,475,90
1,2,476,59,52,20,678,90
1,90,597,57,53,10,742,90
1,67,713,59,56,20,812,90
1,17,790,57,59,10,924,90
1,39,876,61,59,20,1026,90
1,107,1036,64,61,20,1052,90
